NAME : XML100_3256_13
DIMENSION : 101
NB_CLUSTERS : 7
CLUSTERING_ALG : KMedoids
CLUSTERING_PARAMS : k(6)
CLUSTERS
1 0
2 2 3 11 14 16 17 32 37 44 50 61 76 77 81 82
3 7 8 15 26 27 28 34 43 58 63 92 93 94 98
4 1 4 6 38 47 55 56 57 64 67 70 78 86 88 90
5 5 9 19 25 30 42 45 46 52 53 59 66 71 75 84 91 96
6 12 21 22 23 29 35 36 40 48 51 65 69 79 83 87 95 99
7 10 13 18 20 24 31 33 39 41 49 54 60 62 68 72 73 74 80 85 89 97 100
EOF